c FILE /home/rafael/Documents/HappySet/MIHS/inputs/happygen/output/graph_d_regular_k10_p0.4_v50_20241127_082704.txt
c SOURCE This is a d-regular graph formed for the happy graph colouring problem.
c DESCRIPTION It was generated using the problem generator of Rhyd Lewis
c
c GRAPH STATS
c Seed                             = 1141051380
c Number of Nodes                  = 50
c Number of colours k              = 10
c Number of pre-assignments        = 20
c Degree of all vertices           = 6
c Density                          = 0.122449
c 
c The degrees of nodes 1 to 50, respectively, are as follows 
c [6, 6, 6, 6, 6, 6, 6, 6, 6, 6, 6, 6, 6, 6, 6, 6, 6, 6, 6, 6, 6, 6, 6, 6, 6, 6, 
c  6, 6, 6, 6, 6, 6, 6, 6, 6, 6, 6, 6, 6, 6, 6, 6, 6, 6, 6, 6, 6, 6, 6, 6] 
c  
p edge 50 150 10
e 1 10
e 1 16
e 1 22
e 1 31
e 1 38
e 1 41
e 2 3
e 2 12
e 2 13
e 2 20
e 2 24
e 2 36
e 3 12
e 3 31
e 3 37
e 3 40
e 3 49
e 4 6
e 4 7
e 4 20
e 4 23
e 4 34
e 4 49
e 5 10
e 5 11
e 5 12
e 5 37
e 5 38
e 5 40
e 6 19
e 6 20
e 6 29
e 6 35
e 6 47
e 7 16
e 7 25
e 7 31
e 7 37
e 7 48
e 8 11
e 8 15
e 8 24
e 8 28
e 8 43
e 8 46
e 9 10
e 9 14
e 9 17
e 9 30
e 9 32
e 9 34
e 10 23
e 10 29
e 10 50
e 11 18
e 11 43
e 11 49
e 11 50
e 12 16
e 12 21
e 12 47
e 13 17
e 13 27
e 13 35
e 13 38
e 13 39
e 14 29
e 14 31
e 14 33
e 14 36
e 14 45
e 15 20
e 15 22
e 15 23
e 15 33
e 15 44
e 16 22
e 16 26
e 16 29
e 17 28
e 17 38
e 17 41
e 17 44
e 18 25
e 18 30
e 18 32
e 18 37
e 18 44
e 19 32
e 19 38
e 19 39
e 19 46
e 19 47
e 20 34
e 20 36
e 21 26
e 21 37
e 21 42
e 21 47
e 21 50
e 22 37
e 22 48
e 22 49
e 23 25
e 23 27
e 23 45
e 24 31
e 24 33
e 24 35
e 24 41
e 25 28
e 25 36
e 25 42
e 26 30
e 26 32
e 26 40
e 26 50
e 27 35
e 27 36
e 27 45
e 27 46
e 28 39
e 28 44
e 28 46
e 29 41
e 29 45
e 30 35
e 30 39
e 30 40
e 31 34
e 32 42
e 32 44
e 33 42
e 33 46
e 33 48
e 34 43
e 34 49
e 35 36
e 38 40
e 39 45
e 39 48
e 40 49
e 41 43
e 41 48
e 42 45
e 42 50
e 43 44
e 43 46
e 47 48
e 47 50
n 1 2
n 3 4
n 5 5
n 6 8
n 7 2
n 8 1
n 9 10
n 13 3
n 16 2
n 21 8
n 23 6
n 30 10
n 33 9
n 36 9
n 41 2
n 44 7
n 45 6
n 47 8
n 49 4
n 50 8
